NAME: I17483-n34-k3
COMMENT : (Fake et al, No of trucks: 3, Optimal value: )
TYPE : CVRP
DIMENSION : 34
EDGE_WEIGHT_TYPE : EUC_2D
CAPACITY : 41
NODE_COORD_SECTION
1 781 48
2 398 180
3 729 22
4 312 759
5 243 950
6 434 750
7 661 726
8 71 409
9 562 484
10 846 339
11 199 771
12 303 953
13 867 313
14 958 468
15 318 708
16 536 867
17 5 726
18 886 840
19 921 868
20 843 645
21 320 190
22 726 365
23 282 175
24 920 447
25 295 17
26 349 109
27 878 986
28 716 356
29 146 970
30 405 33
31 111 607
32 6 421
33 158 836
34 553 693
DEMAND_SECTION
1 0
2 1
3 2
4 5
5 1
6 4
7 2
8 1
9 4
10 1
11 5
12 2
13 5
14 5
15 1
16 5
17 5
18 4
19 4
20 3
21 2
22 5
23 2
24 5
25 2
26 2
27 3
28 2
29 2
30 5
31 3
32 3
33 2
34 5
DEPOT_SECTION
 1
 -1
 EOF 